p cnf 18 16
-1 -2 13 17 0 
-3 11 -4 18 0 
-5 18 0 
-6 -7 9 12 18 0 
-8 17 0 
-9 7 12 17 0 
-10 17 0 
-8 -11 3 18 0 
-12 7 9 -13 2 18 0 
-5 -14 17 0 
-15 -6 18 0 
-16 -4 17 0 
-6 18 0 
-7 9 12 18 0 
-10 -14 17 0 
-16 -1 -2 13 18 0 
